100 8
384 465
296 751
277 522
318 501
785 179
252 275
456 649
878 841
207 221
533 284
578 390
222 480
169 238
477 660
828 399
869 444
592 220
505 399
831 861
165 717
444 330
816 398
557 209
525 231
903 317
502 682
641 256
774 355
717 360
817 883
769 396
943 864
612 502
353 475
371 741
295 317
380 420
168 165
929 155
254 485
854 421
371 807
657 626
506 476
216 190
780 257
245 436
133 731
396 520
153 656
431 723
149 411
285 461
224 387
66 437
948 270
667 185
649 527
121 766
502 462
380 562
466 321
507 439
967 209
790 384
800 241
300 284
336 272
847 437
190 96
96 679
805 167
187 428
796 190
869 230
861 377
754 766
189 328
119 116
315 209
768 293
847 866
250 477
941 762
865 250
259 551
813 354
147 328
731 348
637 427
236 88
176 769
252 586
526 726
546 322
681 357
364 463
924 844
510 469
137 343
